2
1000 5
42
150 1 3
151 1 4
152 1 3
154 1 4
155 1 4
156 1 3
157 1 1
158 1 2
159 1 2
160 1 1
161 1 1
162 1 1
163 1 1
164 1 2
167 1 1
168 1 3
169 1 1
170 1 2
171 1 3
173 1 2
174 1 5
175 1 6
176 1 5
177 1 3
179 1 2
180 1 1
182 1 1
184 1 2
185 1 3
186 1 1
187 1 2
188 1 4
189 1 1
190 1 1
191 1 5
192 1 4
194 1 2
195 1 1
196 1 3
197 1 2
199 1 1
200 1 1
